####################################################################### 
# 
# This file contains crystal structure data downloaded from the 
# Cambridge Structural Database (CSD) hosted by the Cambridge 
# Crystallographic Data Centre (CCDC).
# 
# Full information about CCDC data access policies and citation 
# guidelines are available at http://www.ccdc.cam.ac.uk/access/V1 
# 
# Audit and citation data items may have been added by the CCDC. 
# Please retain this information to preserve the provenance of 
# this file and to allow appropriate attribution of the data. 
# 
#######################################################################

data_H2Pc
_audit_block_doi                 10.5517/ccs5j8q
_database_code_depnum_ccdc_archive 'CCDC 720293'
loop_
_citation_id
_citation_doi
_citation_year
1 10.1002/chem.200901722 2009
_audit_update_record             
;
2009-02-12 deposited with the CCDC.
2016-11-02 downloaded from the CCDC.
;

_audit_creation_method           SHELXL-97
_chemical_name_systematic        
;
?
;
_chemical_name_common            
'metal free 1,4,8,11,15,18,22,25-octa(butyloxy)phthalocyanine'

_chemical_melting_point          ?
_chemical_formula_moiety         ?
_chemical_formula_sum            'C64 H82 N8 O8'
_chemical_formula_weight         1091.38

loop_
_atom_type_symbol
_atom_type_description
_atom_type_scat_dispersion_real
_atom_type_scat_dispersion_imag
_atom_type_scat_source
C C 0.0033 0.0016 'International Tables Vol C Tables 4.2.6.8 and 6.1.1.4'
H H 0.0000 0.0000 'International Tables Vol C Tables 4.2.6.8 and 6.1.1.4'
N N 0.0061 0.0033 'International Tables Vol C Tables 4.2.6.8 and 6.1.1.4'
O O 0.0106 0.0060 'International Tables Vol C Tables 4.2.6.8 and 6.1.1.4'

_symmetry_cell_setting           ?
_symmetry_space_group_name_H-M   ?

loop_
_symmetry_equiv_pos_as_xyz
'x, y, z'
'-x, -y, -z'

_cell_length_a                   14.0135(3)
_cell_length_b                   14.3092(3)
_cell_length_c                   16.9072(3)
_cell_angle_alpha                71.9900(10)
_cell_angle_beta                 85.8280(10)
_cell_angle_gamma                73.4420(10)
_cell_volume                     3090.01(11)
_cell_formula_units_Z            2
_cell_measurement_temperature    273(2)
_cell_measurement_reflns_used    ?
_cell_measurement_theta_min      ?
_cell_measurement_theta_max      ?

_exptl_crystal_description       ?
_exptl_crystal_colour            ?
_exptl_crystal_size_max          ?
_exptl_crystal_size_mid          ?
_exptl_crystal_size_min          ?
_exptl_crystal_density_meas      ?
_exptl_crystal_density_diffrn    1.173
_exptl_crystal_density_method    'not measured'
_exptl_crystal_F_000             1172
_exptl_absorpt_coefficient_mu    0.078
_exptl_absorpt_correction_type   ?
_exptl_absorpt_correction_T_min  ?
_exptl_absorpt_correction_T_max  ?
_exptl_absorpt_process_details   ?

_exptl_special_details           
;
?
;

_diffrn_ambient_temperature      273(2)
_diffrn_radiation_wavelength     0.71073
_diffrn_radiation_type           MoK\a
_diffrn_radiation_source         'fine-focus sealed tube'
_diffrn_radiation_monochromator  graphite
_diffrn_measurement_device_type  ?
_diffrn_measurement_method       ?
_diffrn_detector_area_resol_mean ?
_diffrn_standards_number         ?
_diffrn_standards_interval_count ?
_diffrn_standards_interval_time  ?
_diffrn_standards_decay_%        ?
_diffrn_reflns_number            32736
_diffrn_reflns_av_R_equivalents  0.0257
_diffrn_reflns_av_sigmaI/netI    0.0350
_diffrn_reflns_limit_h_min       -16
_diffrn_reflns_limit_h_max       15
_diffrn_reflns_limit_k_min       -17
_diffrn_reflns_limit_k_max       17
_diffrn_reflns_limit_l_min       -20
_diffrn_reflns_limit_l_max       19
_diffrn_reflns_theta_min         1.52
_diffrn_reflns_theta_max         25.00
_reflns_number_total             10816
_reflns_number_gt                6204
_reflns_threshold_expression     >2sigma(I)

_computing_data_collection       ?
_computing_cell_refinement       ?
_computing_data_reduction        ?
_computing_structure_solution    ?
_computing_structure_refinement  'SHELXL-97 (Sheldrick, 1997)'
_computing_molecular_graphics    ?
_computing_publication_material  ?

_refine_special_details          
;
Refinement of F^2^ against ALL reflections. The weighted R-factor wR and
goodness of fit S are based on F^2^, conventional R-factors R are based
on F, with F set to zero for negative F^2^. The threshold expression of
F^2^ > 2sigma(F^2^) is used only for calculating R-factors(gt) etc. and is
not relevant to the choice of reflections for refinement. R-factors based
on F^2^ are statistically about twice as large as those based on F, and R-
factors based on ALL data will be even larger.
;

_refine_ls_structure_factor_coef Fsqd
_refine_ls_matrix_type           full
_refine_ls_weighting_scheme      calc
_refine_ls_weighting_details     
'calc w=1/[\s^2^(Fo^2^)+(0.1688P)^2^+0.9121P] where P=(Fo^2^+2Fc^2^)/3'
_atom_sites_solution_primary     direct
_atom_sites_solution_secondary   difmap
_atom_sites_solution_hydrogens   geom
_refine_ls_hydrogen_treatment    mixed
_refine_ls_extinction_method     none
_refine_ls_extinction_coef       ?
_refine_ls_number_reflns         10816
_refine_ls_number_parameters     721
_refine_ls_number_restraints     1
_refine_ls_R_factor_all          0.1288
_refine_ls_R_factor_gt           0.0791
_refine_ls_wR_factor_ref         0.2880
_refine_ls_wR_factor_gt          0.2345
_refine_ls_goodness_of_fit_ref   1.024
_refine_ls_restrained_S_all      1.026
_refine_ls_shift/su_max          0.006
_refine_ls_shift/su_mean         0.001

loop_
_atom_site_label
_atom_site_type_symbol
_atom_site_fract_x
_atom_site_fract_y
_atom_site_fract_z
_atom_site_U_iso_or_equiv
_atom_site_adp_type
_atom_site_occupancy
_atom_site_symmetry_multiplicity
_atom_site_calc_flag
_atom_site_refinement_flags
_atom_site_disorder_assembly
_atom_site_disorder_group
N6 N 0.28639(19) 0.24944(18) 0.17791(15) 0.0607(7) Uani 1 1 d . . .
O1 O 0.67927(19) 0.03889(18) -0.05452(16) 0.0837(7) Uani 1 1 d . . .
O2 O 0.4952(2) -0.14042(17) 0.23140(16) 0.0881(8) Uani 1 1 d . . .
N5 N 0.23322(19) 0.43776(19) 0.05705(16) 0.0645(7) Uani 1 1 d . . .
H5A H 0.2859 0.3871 0.0703 0.077 Uiso 1 1 calc R . .
N2 N 0.55085(19) 0.2303(2) -0.02752(16) 0.0638(7) Uani 1 1 d . . .
O6 O -0.05817(18) 0.5401(2) 0.14933(16) 0.0895(8) Uani 1 1 d . . .
N1 N 0.45064(19) 0.17519(19) 0.08987(15) 0.0633(7) Uani 1 1 d . . .
H1A H 0.4106 0.2341 0.0874 0.076 Uiso 1 1 calc R . .
N4 N 0.2921(2) 0.5374(2) -0.06952(17) 0.0677(7) Uani 1 1 d . . .
N3 N 0.40801(19) 0.37008(18) -0.02290(16) 0.0626(7) Uani 1 1 d . . .
O7 O 0.0735(2) 0.3511(2) 0.36493(17) 0.0958(8) Uani 1 1 d . . .
O5 O 0.11060(18) 0.69646(19) -0.15254(16) 0.0890(8) Uani 1 1 d . . .
O4 O 0.4021(2) 0.6793(2) -0.1728(2) 0.1107(10) Uani 1 1 d . . .
O3 O 0.70611(19) 0.3177(2) -0.13675(19) 0.0961(8) Uani 1 1 d . . .
O8 O 0.3792(3) -0.0102(2) 0.40073(16) 0.1359(14) Uani 1 1 d . . .
N7 N 0.3985(2) 0.07853(19) 0.22024(16) 0.0648(7) Uani 1 1 d . . .
N8 N 0.14348(19) 0.3900(2) 0.18200(16) 0.0654(7) Uani 1 1 d . . .
C3 C 0.5012(2) 0.3291(2) -0.04760(19) 0.0618(8) Uani 1 1 d . . .
C4 C 0.2223(2) 0.5171(2) -0.0159(2) 0.0631(8) Uani 1 1 d . . .
C5 C 0.0777(2) 0.5384(2) 0.0585(2) 0.0644(8) Uani 1 1 d . . .
C6 C 0.5676(2) 0.0499(2) 0.0557(2) 0.0640(8) Uani 1 1 d . . .
C7 C 0.2107(2) 0.3016(2) 0.21668(19) 0.0598(8) Uani 1 1 d . . .
C8 C 0.4486(2) 0.0874(2) 0.1515(2) 0.0624(8) Uani 1 1 d . . .
C9 C 0.5217(2) 0.0052(2) 0.1280(2) 0.0659(9) Uani 1 1 d . . .
C10 C 0.5400(2) 0.4077(3) -0.1056(2) 0.0654(8) Uani 1 1 d . . .
C11 C 0.1201(2) 0.5792(2) -0.0173(2) 0.0662(9) Uani 1 1 d . . .
C12 C 0.3284(2) 0.1576(2) 0.23485(19) 0.0609(8) Uani 1 1 d . . .
C13 C 0.5225(2) 0.1599(2) 0.0327(2) 0.0618(8) Uani 1 1 d . . .
C14 C 0.3819(2) 0.4715(2) -0.0666(2) 0.0648(8) Uani 1 1 d . . .
C15 C 0.0658(3) 0.6647(3) -0.0806(2) 0.0731(9) Uani 1 1 d . . .
C16 C 0.5462(3) -0.1013(2) 0.1634(2) 0.0729(9) Uani 1 1 d . . .
C17 C 0.4644(2) 0.4991(2) -0.1174(2) 0.0664(8) Uani 1 1 d . . .
C18 C -0.0212(3) 0.5836(3) 0.0754(2) 0.0702(9) Uani 1 1 d . . .
C19 C 0.7546(3) -0.0196(3) -0.0955(2) 0.0756(10) Uani 1 1 d . . .
H19A H 0.7359 -0.0786 -0.0987 0.091 Uiso 1 1 calc R . .
H19B H 0.8173 -0.0435 -0.0650 0.091 Uiso 1 1 calc R . .
C20 C 0.6414(3) -0.0101(3) 0.0175(2) 0.0700(9) Uani 1 1 d . . .
C21 C 0.1518(2) 0.4482(2) 0.1058(2) 0.0629(8) Uani 1 1 d . . .
C22 C 0.2824(3) 0.1512(2) 0.31549(19) 0.0679(9) Uani 1 1 d . . .
C23 C 0.2070(2) 0.2432(2) 0.30481(19) 0.0654(8) Uani 1 1 d . . .
C24 C 0.4773(3) 0.5917(3) -0.1691(2) 0.0803(10) Uani 1 1 d . . .
C25 C 0.6198(3) -0.1582(3) 0.1259(2) 0.0835(11) Uani 1 1 d . . .
H25A H 0.6387 -0.2289 0.1487 0.100 Uiso 1 1 calc R . .
C26 C -0.0323(3) 0.7070(3) -0.0611(2) 0.0810(10) Uani 1 1 d . . .
H26A H -0.0713 0.7634 -0.1006 0.097 Uiso 1 1 calc R . .
C27 C 0.1487(3) 0.2617(3) 0.3711(2) 0.0760(10) Uani 1 1 d . . .
C28 C -0.0730(3) 0.6696(3) 0.0128(3) 0.0829(11) Uani 1 1 d . . .
H28A H -0.1383 0.7024 0.0224 0.100 Uiso 1 1 calc R . .
C29 C 0.6667(3) -0.1143(3) 0.0556(2) 0.0833(11) Uani 1 1 d . . .
H29A H 0.7170 -0.1563 0.0332 0.100 Uiso 1 1 calc R . .
C30 C 0.2990(3) 0.0759(3) 0.3930(2) 0.0884(12) Uani 1 1 d . . .
C31 C 0.7648(3) 0.0473(3) -0.1798(2) 0.0868(11) Uani 1 1 d . . .
H31A H 0.7723 0.1109 -0.1755 0.104 Uiso 1 1 calc R . .
H31B H 0.7040 0.0635 -0.2113 0.104 Uiso 1 1 calc R . .
C32 C 0.6303(3) 0.4064(3) -0.1464(2) 0.0759(10) Uani 1 1 d . . .
C33 C -0.1584(3) 0.5842(3) 0.1695(3) 0.0976(13) Uani 1 1 d . . .
H33A H -0.2028 0.5983 0.1233 0.117 Uiso 1 1 calc R . .
H33B H -0.1635 0.6481 0.1805 0.117 Uiso 1 1 calc R . .
C34 C 0.6404(3) 0.4979(3) -0.1990(3) 0.0903(12) Uani 1 1 d . . .
H34A H 0.6995 0.4986 -0.2278 0.108 Uiso 1 1 calc R . .
C35 C 0.4078(4) 0.7713(3) -0.2311(3) 0.1044(14) Uani 1 1 d . . .
H35A H 0.4022 0.7682 -0.2870 0.125 Uiso 1 1 calc R . .
H35B H 0.4713 0.7834 -0.2254 0.125 Uiso 1 1 calc R . .
C36 C 0.0544(3) 0.7643(4) -0.2226(3) 0.1122(16) Uani 1 1 d . . .
H36A H 0.0275 0.8305 -0.2136 0.135 Uiso 1 1 calc R . .
H36B H -0.0012 0.7396 -0.2296 0.135 Uiso 1 1 calc R . .
C37 C 0.5664(3) 0.5887(3) -0.2106(3) 0.0898(11) Uani 1 1 d . . .
H37A H 0.5766 0.6487 -0.2469 0.108 Uiso 1 1 calc R . .
C38 C 0.1628(3) 0.1851(3) 0.4456(2) 0.0968(13) Uani 1 1 d . . .
H38A H 0.1216 0.1947 0.4898 0.116 Uiso 1 1 calc R . .
C39 C 0.2370(4) 0.0937(3) 0.4566(2) 0.1047(14) Uani 1 1 d . . .
H39A H 0.2448 0.0436 0.5080 0.126 Uiso 1 1 calc R . .
C40 C 0.3234(4) 0.8564(3) -0.2153(3) 0.1067(15) Uani 1 1 d . . .
H40A H 0.2611 0.8388 -0.2133 0.128 Uiso 1 1 calc R . .
H40B H 0.3340 0.8641 -0.1618 0.128 Uiso 1 1 calc R . .
C41 C 0.4879(4) -0.2408(3) 0.2500(3) 0.1127(16) Uani 1 1 d . . .
H41A H 0.5541 -0.2877 0.2619 0.135 Uiso 1 1 calc R . .
H41B H 0.4620 -0.2484 0.2014 0.135 Uiso 1 1 calc R . .
C42 C 0.4265(4) -0.2685(3) 0.3179(3) 0.1122(15) Uani 1 1 d . . .
H42A H 0.4482 -0.2509 0.3633 0.135 Uiso 1 1 calc R . .
H42B H 0.3597 -0.2244 0.3023 0.135 Uiso 1 1 calc R . .
C43 C 0.8509(3) 0.0023(4) -0.2272(3) 0.1057(14) Uani 1 1 d . . .
H43A H 0.9117 -0.0155 -0.1952 0.127 Uiso 1 1 calc R . .
H43B H 0.8426 -0.0602 -0.2330 0.127 Uiso 1 1 calc R . .
C44 C 0.1110(4) 0.7766(4) -0.2976(3) 0.1125(15) Uani 1 1 d . . .
H44A H 0.1720 0.7897 -0.2861 0.135 Uiso 1 1 calc R . .
H44B H 0.1299 0.7115 -0.3093 0.135 Uiso 1 1 calc R . .
C45 C 0.8546(6) 0.2063(7) -0.0642(8) 0.225(6) Uani 1 1 d D . .
H45A H 0.8382 0.1433 -0.0588 0.270 Uiso 1 1 calc R . .
H45B H 0.8857 0.1972 -0.0119 0.270 Uiso 1 1 calc R . .
C46 C 0.1049(4) 0.4398(4) 0.3506(4) 0.1331(19) Uani 1 1 d . . .
H46A H 0.1730 0.4188 0.3711 0.160 Uiso 1 1 calc R . .
H46B H 0.1060 0.4709 0.2909 0.160 Uiso 1 1 calc R . .
C47 C 0.5086(5) -0.1515(4) 0.4694(3) 0.135(2) Uani 1 1 d . . .
H47A H 0.5079 -0.1750 0.4215 0.162 Uiso 1 1 calc R . .
H47B H 0.5577 -0.1132 0.4595 0.162 Uiso 1 1 calc R . .
C48 C 0.3169(5) 0.9552(4) -0.2822(4) 0.145(2) Uani 1 1 d . . .
H48A H 0.3801 0.9709 -0.2847 0.174 Uiso 1 1 calc R . .
H48B H 0.3058 0.9468 -0.3352 0.174 Uiso 1 1 calc R . .
C49 C 0.4078(5) -0.0805(4) 0.4758(3) 0.1355(19) Uani 1 1 d . . .
H49A H 0.3596 -0.1195 0.4941 0.163 Uiso 1 1 calc R . .
H49B H 0.4107 -0.0462 0.5166 0.163 Uiso 1 1 calc R . .
C50 C 0.0676(5) 0.8536(6) -0.3722(3) 0.183(3) Uani 1 1 d . . .
H50A H 0.0562 0.9195 -0.3630 0.219 Uiso 1 1 calc R . .
H50B H 0.0029 0.8457 -0.3803 0.219 Uiso 1 1 calc R . .
C51 C -0.2807(5) 0.5368(6) 0.2762(5) 0.198(4) Uani 1 1 d . . .
H51A H -0.3289 0.5529 0.2322 0.237 Uiso 1 1 calc R . .
H51B H -0.2887 0.5987 0.2912 0.237 Uiso 1 1 calc R . .
C52 C 0.0653(8) 0.6099(6) 0.3661(6) 0.233(5) Uani 1 1 d . . .
H52A H 0.1266 0.6011 0.3942 0.280 Uiso 1 1 calc R . .
H52B H 0.0778 0.6319 0.3069 0.280 Uiso 1 1 calc R . .
C53 C 0.2367(6) 1.0431(5) -0.2701(5) 0.193(3) Uani 1 1 d . . .
H53A H 0.2375 1.1038 -0.3147 0.290 Uiso 1 1 calc R . .
H53B H 0.2474 1.0528 -0.2181 0.290 Uiso 1 1 calc R . .
H53C H 0.1734 1.0295 -0.2698 0.290 Uiso 1 1 calc R . .
C54 C 0.5399(7) -0.2407(6) 0.5429(5) 0.204(3) Uani 1 1 d . . .
H54A H 0.5451 -0.2161 0.5893 0.244 Uiso 1 1 calc R . .
H54B H 0.4870 -0.2742 0.5553 0.244 Uiso 1 1 calc R . .
C55 C -0.1867(4) 0.5112(5) 0.2441(3) 0.150(2) Uani 1 1 d . . .
H55A H -0.1783 0.4478 0.2314 0.180 Uiso 1 1 calc R . .
H55B H -0.1390 0.4969 0.2881 0.180 Uiso 1 1 calc R . .
C56 C 0.1226(6) 0.8575(6) -0.4511(4) 0.207(4) Uani 1 1 d . . .
H56A H 0.0854 0.9135 -0.4954 0.310 Uiso 1 1 calc R . .
H56B H 0.1313 0.7946 -0.4636 0.310 Uiso 1 1 calc R . .
H56C H 0.1866 0.8669 -0.4452 0.310 Uiso 1 1 calc R . .
C57 C 0.7638(6) 0.2824(7) -0.0703(7) 0.262(6) Uani 1 1 d . . .
H57A H 0.7242 0.2567 -0.0236 0.314 Uiso 1 1 calc R . .
H57B H 0.7789 0.3407 -0.0617 0.314 Uiso 1 1 calc R . .
C58 C 0.0525(7) 0.5119(6) 0.3837(6) 0.242(5) Uani 1 1 d . . .
H58A H 0.0606 0.4817 0.4435 0.290 Uiso 1 1 calc R . .
H58B H -0.0169 0.5221 0.3711 0.290 Uiso 1 1 calc R . .
C59 C 0.6297(7) -0.3158(6) 0.5401(6) 0.240(5) Uani 1 1 d . . .
H59A H 0.6394 -0.3705 0.5914 0.359 Uiso 1 1 calc R . .
H59B H 0.6843 -0.2859 0.5322 0.359 Uiso 1 1 calc R . .
H59C H 0.6265 -0.3420 0.4948 0.359 Uiso 1 1 calc R . .
C60 C -0.3061(7) 0.4592(8) 0.3496(6) 0.285(7) Uani 1 1 d . . .
H60A H -0.3721 0.4864 0.3672 0.428 Uiso 1 1 calc R . .
H60B H -0.2595 0.4424 0.3941 0.428 Uiso 1 1 calc R . .
H60C H -0.3032 0.3987 0.3350 0.428 Uiso 1 1 calc R . .
C61 C 0.8618(5) 0.0724(5) -0.3118(4) 0.165(3) Uani 1 1 d . . .
H61A H 0.9180 0.0390 -0.3387 0.247 Uiso 1 1 calc R . .
H61B H 0.8719 0.1338 -0.3066 0.247 Uiso 1 1 calc R . .
H61C H 0.8026 0.0891 -0.3444 0.247 Uiso 1 1 calc R . .
C62 C 0.4187(7) -0.3687(5) 0.3505(5) 0.200(4) Uani 1 1 d . . .
H62A H 0.4848 -0.4130 0.3685 0.240 Uiso 1 1 calc R . .
H62B H 0.3988 -0.3876 0.3052 0.240 Uiso 1 1 calc R . .
C63 C 0.3497(8) -0.3926(6) 0.4210(5) 0.233(4) Uani 1 1 d . . .
H63A H 0.3537 -0.4641 0.4372 0.349 Uiso 1 1 calc R . .
H63B H 0.2827 -0.3532 0.4036 0.349 Uiso 1 1 calc R . .
H63C H 0.3684 -0.3758 0.4673 0.349 Uiso 1 1 calc R . .
C64 C 0.9311(12) 0.2141(12) -0.1270(9) 0.353(10) Uani 1 1 d D . .
H64A H 0.9468 0.2783 -0.1354 0.423 Uiso 1 1 calc R . .
H64B H 0.9036 0.2171 -0.1790 0.423 Uiso 1 1 calc R . .
C65 C 1.0286(7) 0.1275(10) -0.1078(9) 0.313(8) Uani 1 1 d . . .
H65A H 1.0730 0.1388 -0.1535 0.470 Uiso 1 1 calc R . .
H65B H 1.0146 0.0633 -0.0995 0.470 Uiso 1 1 calc R . .
H65C H 1.0591 0.1261 -0.0583 0.470 Uiso 1 1 calc R . .
C66 C -0.0024(14) 0.6910(10) 0.3827(13) 0.54(2) Uani 1 1 d . . .
H66A H 0.0251 0.7482 0.3689 0.816 Uiso 1 1 calc R . .
H66B H -0.0180 0.6728 0.4407 0.816 Uiso 1 1 calc R . .
H66C H -0.0619 0.7090 0.3501 0.816 Uiso 1 1 calc R . .

loop_
_atom_site_aniso_label
_atom_site_aniso_U_11
_atom_site_aniso_U_22
_atom_site_aniso_U_33
_atom_site_aniso_U_23
_atom_site_aniso_U_13
_atom_site_aniso_U_12
N6 0.0622(16) 0.0494(14) 0.0617(15) -0.0151(12) -0.0015(12) -0.0034(12)
O1 0.0848(17) 0.0649(15) 0.0866(17) -0.0271(13) 0.0116(13) 0.0040(13)
O2 0.112(2) 0.0524(14) 0.0839(17) -0.0147(12) 0.0067(15) -0.0050(13)
N5 0.0557(16) 0.0540(15) 0.0666(16) -0.0092(13) -0.0007(13) 0.0020(12)
N2 0.0605(16) 0.0558(16) 0.0686(17) -0.0206(14) 0.0005(13) -0.0038(13)
O6 0.0690(16) 0.0837(17) 0.0888(18) -0.0190(14) 0.0101(13) 0.0104(13)
N1 0.0654(17) 0.0480(14) 0.0654(16) -0.0179(13) 0.0019(13) 0.0021(12)
N4 0.0628(17) 0.0551(16) 0.0721(17) -0.0111(13) 0.0028(14) -0.0057(14)
N3 0.0603(16) 0.0512(15) 0.0652(15) -0.0142(12) 0.0043(12) -0.0028(12)
O7 0.0898(19) 0.0815(18) 0.0990(19) -0.0283(15) 0.0287(15) -0.0033(15)
O5 0.0763(16) 0.0793(17) 0.0787(17) 0.0076(13) -0.0067(13) -0.0036(13)
O4 0.102(2) 0.0643(17) 0.140(3) -0.0012(16) 0.0225(18) -0.0211(16)
O3 0.0635(16) 0.095(2) 0.129(2) -0.0451(17) 0.0105(15) -0.0110(15)
O8 0.197(4) 0.087(2) 0.0630(17) -0.0002(15) -0.0032(19) 0.030(2)
N7 0.0706(17) 0.0516(15) 0.0626(16) -0.0171(12) -0.0020(13) -0.0018(13)
N8 0.0601(16) 0.0593(16) 0.0679(17) -0.0186(14) 0.0008(13) -0.0038(13)
C3 0.062(2) 0.0584(19) 0.0604(18) -0.0187(15) -0.0007(15) -0.0083(16)
C4 0.061(2) 0.0498(17) 0.066(2) -0.0105(15) -0.0043(16) -0.0017(15)
C5 0.060(2) 0.0525(17) 0.068(2) -0.0141(15) -0.0007(15) -0.0008(15)
C6 0.0610(19) 0.0547(18) 0.066(2) -0.0200(16) -0.0054(15) 0.0028(15)
C7 0.0592(19) 0.0521(17) 0.0622(18) -0.0170(14) -0.0012(15) -0.0061(15)
C8 0.067(2) 0.0503(18) 0.0603(19) -0.0163(15) -0.0052(16) -0.0012(15)
C9 0.071(2) 0.0508(18) 0.067(2) -0.0199(15) -0.0093(16) 0.0016(16)
C10 0.062(2) 0.067(2) 0.068(2) -0.0232(16) 0.0056(16) -0.0169(17)
C11 0.0607(19) 0.0522(18) 0.074(2) -0.0146(16) -0.0044(16) 0.0000(15)
C12 0.0638(19) 0.0532(18) 0.0590(18) -0.0150(14) -0.0024(15) -0.0073(15)
C13 0.0613(19) 0.0521(18) 0.0655(19) -0.0207(16) -0.0029(15) -0.0012(15)
C14 0.068(2) 0.0536(19) 0.0644(19) -0.0130(15) 0.0010(16) -0.0095(16)
C15 0.071(2) 0.0542(19) 0.079(2) -0.0095(17) -0.0110(18) -0.0025(17)
C16 0.080(2) 0.0543(19) 0.070(2) -0.0138(17) -0.0064(18) -0.0014(18)
C17 0.063(2) 0.061(2) 0.070(2) -0.0164(16) 0.0065(16) -0.0152(17)
C18 0.064(2) 0.062(2) 0.072(2) -0.0202(17) 0.0054(17) 0.0004(17)
C19 0.060(2) 0.074(2) 0.086(2) -0.0359(19) 0.0029(17) 0.0053(17)
C20 0.065(2) 0.064(2) 0.071(2) -0.0234(17) -0.0024(17) 0.0025(17)
C21 0.059(2) 0.0542(18) 0.065(2) -0.0170(16) -0.0008(15) -0.0010(15)
C22 0.077(2) 0.0579(19) 0.0596(19) -0.0136(15) -0.0036(16) -0.0082(17)
C23 0.068(2) 0.0591(19) 0.0626(19) -0.0162(15) 0.0017(15) -0.0103(16)
C24 0.080(3) 0.064(2) 0.090(3) -0.0158(19) 0.004(2) -0.018(2)
C25 0.089(3) 0.054(2) 0.086(3) -0.0158(18) 0.000(2) 0.0084(19)
C26 0.074(2) 0.065(2) 0.080(2) -0.0113(18) -0.0086(19) 0.0088(19)
C27 0.079(2) 0.070(2) 0.069(2) -0.0203(18) 0.0099(18) -0.0088(19)
C28 0.065(2) 0.069(2) 0.096(3) -0.027(2) -0.005(2) 0.0139(18)
C29 0.080(2) 0.062(2) 0.088(3) -0.0243(19) -0.004(2) 0.0157(19)
C30 0.107(3) 0.068(2) 0.066(2) -0.0085(18) 0.000(2) 0.000(2)
C31 0.083(3) 0.077(2) 0.091(3) -0.031(2) 0.007(2) -0.004(2)
C32 0.067(2) 0.076(2) 0.085(2) -0.030(2) 0.0053(18) -0.017(2)
C33 0.075(3) 0.102(3) 0.101(3) -0.040(3) 0.012(2) 0.005(2)
C34 0.073(3) 0.098(3) 0.102(3) -0.029(2) 0.019(2) -0.032(2)
C35 0.129(4) 0.071(3) 0.107(3) -0.012(2) -0.011(3) -0.031(3)
C36 0.088(3) 0.117(4) 0.088(3) 0.006(3) -0.009(2) 0.001(3)
C37 0.084(3) 0.082(3) 0.101(3) -0.018(2) 0.016(2) -0.033(2)
C38 0.113(3) 0.092(3) 0.068(2) -0.017(2) 0.019(2) -0.013(3)
C39 0.137(4) 0.085(3) 0.064(2) -0.007(2) 0.015(2) -0.009(3)
C40 0.113(3) 0.068(3) 0.131(4) -0.027(3) -0.033(3) -0.008(2)
C41 0.141(4) 0.068(3) 0.119(4) -0.027(2) 0.030(3) -0.020(3)
C42 0.136(4) 0.075(3) 0.103(3) 0.000(2) -0.002(3) -0.023(3)
C43 0.097(3) 0.120(4) 0.096(3) -0.045(3) 0.016(2) -0.014(3)
C44 0.111(3) 0.107(3) 0.095(3) 0.009(3) -0.010(3) -0.032(3)
C45 0.113(5) 0.189(7) 0.404(15) -0.185(10) -0.107(7) 0.041(5)
C46 0.134(4) 0.093(4) 0.168(5) -0.054(4) 0.039(4) -0.018(3)
C47 0.172(5) 0.091(3) 0.121(4) -0.024(3) -0.050(4) 0.001(3)
C48 0.170(5) 0.101(4) 0.142(5) -0.020(3) -0.041(4) -0.011(4)
C49 0.155(5) 0.102(4) 0.118(4) -0.006(3) -0.027(3) -0.010(4)
C50 0.152(5) 0.225(8) 0.099(4) 0.034(4) -0.016(4) -0.029(5)
C51 0.128(5) 0.218(8) 0.162(6) 0.002(6) 0.039(5) 0.010(5)
C52 0.307(12) 0.156(7) 0.296(11) -0.145(7) 0.132(9) -0.099(7)
C53 0.217(8) 0.097(4) 0.224(8) -0.031(5) -0.032(6) 0.012(5)
C54 0.233(9) 0.171(7) 0.169(7) -0.025(6) -0.044(6) -0.016(7)
C55 0.098(4) 0.167(5) 0.119(4) 0.000(4) 0.035(3) 0.011(4)
C56 0.245(9) 0.231(9) 0.104(5) 0.026(5) 0.014(5) -0.090(7)
C57 0.129(6) 0.211(8) 0.446(16) -0.158(10) -0.144(8) 0.053(6)
C58 0.285(11) 0.166(7) 0.333(12) -0.166(8) 0.183(10) -0.096(7)
C59 0.200(8) 0.159(7) 0.304(12) -0.050(7) -0.104(8) 0.043(6)
C60 0.234(10) 0.270(11) 0.203(9) 0.039(8) 0.116(8) 0.012(8)
C61 0.178(6) 0.167(6) 0.125(5) -0.043(4) 0.057(4) -0.026(5)
C62 0.321(11) 0.142(6) 0.171(6) -0.055(5) 0.091(7) -0.127(7)
C63 0.325(12) 0.174(7) 0.184(8) 0.000(6) 0.052(8) -0.118(8)
C64 0.275(17) 0.35(2) 0.49(3) -0.245(19) -0.100(18) -0.030(17)
C65 0.139(7) 0.382(18) 0.457(19) -0.273(16) -0.005(9) 0.030(9)
C66 0.63(3) 0.224(13) 0.86(4) -0.31(2) 0.51(4) -0.222(18)

_geom_special_details            
;
All esds (except the esd in the dihedral angle between two l.s. planes)
are estimated using the full covariance matrix. The cell esds are taken
into account individually in the estimation of esds in distances, angles
and torsion angles; correlations between esds in cell parameters are only
used when they are defined by crystal symmetry. An approximate (isotropic)
treatment of cell esds is used for estimating esds involving l.s. planes.
;

loop_
_geom_bond_atom_site_label_1
_geom_bond_atom_site_label_2
_geom_bond_distance
_geom_bond_site_symmetry_2
_geom_bond_publ_flag
N6 C12 1.363(4) . ?
N6 C7 1.365(4) . ?
O1 C20 1.359(4) . ?
O1 C19 1.430(4) . ?
O2 C16 1.363(4) . ?
O2 C41 1.404(5) . ?
N5 C21 1.359(4) . ?
N5 C4 1.376(4) . ?
N2 C13 1.321(4) . ?
N2 C3 1.332(4) . ?
O6 C18 1.352(4) . ?
O6 C33 1.431(4) . ?
N1 C13 1.363(4) . ?
N1 C8 1.368(4) . ?
N4 C4 1.317(4) . ?
N4 C14 1.334(4) . ?
N3 C3 1.363(4) . ?
N3 C14 1.364(4) . ?
O7 C27 1.387(4) . ?
O7 C46 1.405(6) . ?
O5 C15 1.338(4) . ?
O5 C36 1.399(4) . ?
O4 C24 1.376(4) . ?
O4 C35 1.399(5) . ?
O3 C57 1.311(8) . ?
O3 C32 1.376(4) . ?
O8 C49 1.356(5) . ?
O8 C30 1.390(5) . ?
N7 C8 1.305(4) . ?
N7 C12 1.346(4) . ?
N8 C21 1.318(4) . ?
N8 C7 1.332(4) . ?
C3 C10 1.453(4) . ?
C4 C11 1.451(4) . ?
C5 C11 1.400(5) . ?
C5 C18 1.403(4) . ?
C5 C21 1.449(4) . ?
C6 C9 1.398(5) . ?
C6 C20 1.401(4) . ?
C6 C13 1.454(4) . ?
C7 C23 1.471(4) . ?
C8 C9 1.459(4) . ?
C9 C16 1.402(4) . ?
C10 C32 1.395(5) . ?
C10 C17 1.397(4) . ?
C11 C15 1.414(4) . ?
C12 C22 1.453(5) . ?
C14 C17 1.462(5) . ?
C15 C26 1.395(5) . ?
C16 C25 1.368(5) . ?
C17 C24 1.396(5) . ?
C18 C28 1.399(5) . ?
C19 C31 1.474(5) . ?
C20 C29 1.380(5) . ?
C22 C30 1.400(5) . ?
C22 C23 1.403(4) . ?
C23 C27 1.387(5) . ?
C24 C37 1.383(5) . ?
C25 C29 1.378(5) . ?
C26 C28 1.353(5) . ?
C27 C38 1.372(5) . ?
C30 C39 1.372(5) . ?
C31 C43 1.498(5) . ?
C32 C34 1.375(5) . ?
C33 C55 1.479(6) . ?
C34 C37 1.381(5) . ?
C35 C40 1.513(6) . ?
C36 C44 1.436(6) . ?
C38 C39 1.390(5) . ?
C40 C48 1.497(6) . ?
C41 C42 1.408(6) . ?
C42 C62 1.401(7) . ?
C43 C61 1.498(7) . ?
C44 C50 1.430(6) . ?
C45 C57 1.405(9) . ?
C45 C64 1.455(9) . ?
C46 C58 1.336(7) . ?
C47 C54 1.465(8) . ?
C47 C49 1.505(7) . ?
C48 C53 1.485(8) . ?
C50 C56 1.485(8) . ?
C51 C55 1.381(7) . ?
C51 C60 1.487(9) . ?
C52 C66 1.363(12) . ?
C52 C58 1.402(9) . ?
C54 C59 1.411(10) . ?
C62 C63 1.497(9) . ?
C64 C65 1.536(16) . ?

loop_
_geom_angle_atom_site_label_1
_geom_angle_atom_site_label_2
_geom_angle_atom_site_label_3
_geom_angle
_geom_angle_site_symmetry_1
_geom_angle_site_symmetry_3
_geom_angle_publ_flag
C12 N6 C7 106.9(3) . . ?
C20 O1 C19 119.2(3) . . ?
C16 O2 C41 120.1(3) . . ?
C21 N5 C4 112.7(3) . . ?
C13 N2 C3 122.5(3) . . ?
C18 O6 C33 119.6(3) . . ?
C13 N1 C8 113.2(3) . . ?
C4 N4 C14 122.5(3) . . ?
C3 N3 C14 106.6(3) . . ?
C27 O7 C46 115.6(3) . . ?
C15 O5 C36 120.3(3) . . ?
C24 O4 C35 118.7(3) . . ?
C57 O3 C32 118.8(5) . . ?
C49 O8 C30 121.2(4) . . ?
C8 N7 C12 122.5(3) . . ?
C21 N8 C7 122.6(3) . . ?
N2 C3 N3 126.7(3) . . ?
N2 C3 C10 122.2(3) . . ?
N3 C3 C10 111.0(3) . . ?
N4 C4 N5 127.2(3) . . ?
N4 C4 C11 127.0(3) . . ?
N5 C4 C11 105.6(3) . . ?
C11 C5 C18 120.5(3) . . ?
C11 C5 C21 107.6(3) . . ?
C18 C5 C21 131.9(3) . . ?
C9 C6 C20 121.1(3) . . ?
C9 C6 C13 107.6(3) . . ?
C20 C6 C13 131.3(3) . . ?
N8 C7 N6 127.2(3) . . ?
N8 C7 C23 122.1(3) . . ?
N6 C7 C23 110.6(3) . . ?
N7 C8 N1 127.8(3) . . ?
N7 C8 C9 126.5(3) . . ?
N1 C8 C9 105.5(3) . . ?
C6 C9 C16 121.0(3) . . ?
C6 C9 C8 107.6(3) . . ?
C16 C9 C8 131.3(3) . . ?
C32 C10 C17 120.6(3) . . ?
C32 C10 C3 133.5(3) . . ?
C17 C10 C3 105.9(3) . . ?
C5 C11 C15 122.4(3) . . ?
C5 C11 C4 107.5(3) . . ?
C15 C11 C4 130.1(3) . . ?
N7 C12 N6 126.5(3) . . ?
N7 C12 C22 122.3(3) . . ?
N6 C12 C22 111.1(3) . . ?
N2 C13 N1 127.4(3) . . ?
N2 C13 C6 126.6(3) . . ?
N1 C13 C6 105.9(3) . . ?
N4 C14 N3 126.3(3) . . ?
N4 C14 C17 122.7(3) . . ?
N3 C14 C17 110.8(3) . . ?
O5 C15 C26 126.2(3) . . ?
O5 C15 C11 118.7(3) . . ?
C26 C15 C11 115.1(3) . . ?
O2 C16 C25 125.0(3) . . ?
O2 C16 C9 118.2(3) . . ?
C25 C16 C9 116.8(4) . . ?
C24 C17 C10 121.3(3) . . ?
C24 C17 C14 133.2(3) . . ?
C10 C17 C14 105.5(3) . . ?
O6 C18 C28 126.1(3) . . ?
O6 C18 C5 117.7(3) . . ?
C28 C18 C5 116.3(3) . . ?
O1 C19 C31 107.6(3) . . ?
O1 C20 C29 126.0(3) . . ?
O1 C20 C6 117.5(3) . . ?
C29 C20 C6 116.5(3) . . ?
N8 C21 N5 126.6(3) . . ?
N8 C21 C5 127.1(3) . . ?
N5 C21 C5 106.2(3) . . ?
C30 C22 C23 120.6(3) . . ?
C30 C22 C12 133.4(3) . . ?
C23 C22 C12 106.0(3) . . ?
C27 C23 C22 120.5(3) . . ?
C27 C23 C7 134.2(3) . . ?
C22 C23 C7 105.3(3) . . ?
O4 C24 C37 125.0(3) . . ?
O4 C24 C17 117.7(3) . . ?
C37 C24 C17 117.3(4) . . ?
C16 C25 C29 122.3(3) . . ?
C28 C26 C15 122.9(3) . . ?
C38 C27 C23 118.1(3) . . ?
C38 C27 O7 118.4(3) . . ?
C23 C27 O7 123.4(3) . . ?
C26 C28 C18 122.9(3) . . ?
C25 C29 C20 122.1(3) . . ?
C39 C30 O8 124.6(3) . . ?
C39 C30 C22 117.8(4) . . ?
O8 C30 C22 117.6(3) . . ?
C19 C31 C43 114.4(3) . . ?
C34 C32 O3 120.5(3) . . ?
C34 C32 C10 117.2(3) . . ?
O3 C32 C10 122.2(3) . . ?
O6 C33 C55 108.5(4) . . ?
C32 C34 C37 122.6(4) . . ?
O4 C35 C40 107.9(4) . . ?
O5 C36 C44 113.1(4) . . ?
C34 C37 C24 121.0(4) . . ?
C27 C38 C39 121.6(4) . . ?
C30 C39 C38 121.2(4) . . ?
C48 C40 C35 110.9(5) . . ?
O2 C41 C42 114.0(4) . . ?
C62 C42 C41 121.7(5) . . ?
C61 C43 C31 113.7(4) . . ?
C50 C44 C36 119.5(5) . . ?
C57 C45 C64 122.9(13) . . ?
C58 C46 O7 118.2(6) . . ?
C54 C47 C49 114.6(6) . . ?
C53 C48 C40 114.0(6) . . ?
O8 C49 C47 109.8(5) . . ?
C44 C50 C56 118.7(6) . . ?
C55 C51 C60 117.2(7) . . ?
C66 C52 C58 124.8(9) . . ?
C59 C54 C47 118.7(8) . . ?
C51 C55 C33 119.5(5) . . ?
O3 C57 C45 122.1(9) . . ?
C46 C58 C52 125.2(7) . . ?
C42 C62 C63 119.2(7) . . ?
C45 C64 C65 116.1(12) . . ?

_diffrn_measured_fraction_theta_max 0.995
_diffrn_reflns_theta_full        25.00
_diffrn_measured_fraction_theta_full 0.995
_refine_diff_density_max         0.535
_refine_diff_density_min         -0.383
_refine_diff_density_rms         0.050


